NAME: random-71-24725
TYPE: TSP
COMMENT: size=71 seed=24725
DIMENSION: 144
EDGE_WEIGHT_TYPE: EUC_2D
NODE_COORD_SECTION
+0 75 481
-0 75 481
+1 966 989
-1 939 302
+2 810 855
-2 146 851
+3 85 912
-3 888 563
+4 757 595
-4 87 856
+5 341 465
-5 411 590
+6 113 309
-6 144 854
+7 205 483
-7 296 135
+8 817 644
-8 497 520
+9 48 831
-9 334 521
+10 199 629
-10 976 578
+11 749 466
-11 101 497
+12 576 695
-12 428 208
+13 234 741
-13 646 198
+14 137 582
-14 690 116
+15 1 172
-15 70 864
+16 807 614
-16 65 579
+17 149 944
-17 837 666
+18 425 107
-18 719 649
+19 220 614
-19 409 204
+20 226 97
-20 401 991
+21 676 820
-21 784 955
+22 958 107
-22 345 444
+23 459 20
-23 295 698
+24 464 843
-24 824 710
+25 477 182
-25 128 677
+26 725 852
-26 492 226
+27 692 772
-27 738 328
+28 461 994
-28 872 157
+29 300 55
-29 663 772
+30 397 342
-30 772 579
+31 767 950
-31 642 893
+32 966 853
-32 240 691
+33 551 338
-33 342 83
+34 543 591
-34 329 43
+35 20 41
-35 800 364
+36 736 168
-36 618 626
+37 124 884
-37 669 389
+38 823 389
-38 379 649
+39 121 6
-39 382 165
+40 6 837
-40 50 75
+41 3 579
-41 885 283
+42 728 982
-42 629 291
+43 309 580
-43 121 399
+44 118 295
-44 814 296
+45 398 924
-45 553 130
+46 258 791
-46 706 594
+47 627 752
-47 203 477
+48 807 917
-48 989 587
+49 716 307
-49 561 870
+50 255 661
-50 721 841
+51 291 884
-51 786 732
+52 646 133
-52 352 144
+53 412 429
-53 626 957
+54 141 882
-54 39 741
+55 46 240
-55 990 283
+56 642 692
-56 974 614
+57 449 264
-57 224 765
+58 647 73
-58 677 758
+59 212 406
-59 443 97
+60 635 691
-60 202 82
+61 59 787
-61 259 641
+62 89 342
-62 842 963
+63 513 824
-63 498 309
+64 697 553
-64 450 190
+65 159 492
-65 486 560
+66 695 473
-66 461 987
+67 737 514
-67 151 709
+68 567 168
-68 789 591
+69 224 893
-69 835 278
+70 235 187
-70 576 255
+71 402 476
-71 969 57
PRECEDENCE_SECTION
+0 -0
+1 -1
+2 -2
+3 -3
+4 -4
+5 -5
+6 -6
+7 -7
+8 -8
+9 -9
+10 -10
+11 -11
+12 -12
+13 -13
+14 -14
+15 -15
+16 -16
+17 -17
+18 -18
+19 -19
+20 -20
+21 -21
+22 -22
+23 -23
+24 -24
+25 -25
+26 -26
+27 -27
+28 -28
+29 -29
+30 -30
+31 -31
+32 -32
+33 -33
+34 -34
+35 -35
+36 -36
+37 -37
+38 -38
+39 -39
+40 -40
+41 -41
+42 -42
+43 -43
+44 -44
+45 -45
+46 -46
+47 -47
+48 -48
+49 -49
+50 -50
+51 -51
+52 -52
+53 -53
+54 -54
+55 -55
+56 -56
+57 -57
+58 -58
+59 -59
+60 -60
+61 -61
+62 -62
+63 -63
+64 -64
+65 -65
+66 -66
+67 -67
+68 -68
+69 -69
+70 -70
+71 -71
EOF
